<number of tasks>
50

<cycle time>
1000

<order strength>
0.599


<task times>
1 269
2 377
3 125
4 39
5 32
6 37
7 120
8 282
9 76
10 94
11 132
12 55
13 206
14 256
15 161
16 161
17 280
18 108
19 135
20 301
21 495
22 344
23 60
24 257
25 73
26 270
27 88
28 468
29 52
30 237
31 112
32 216
33 237
34 57
35 356
36 50
37 363
38 145
39 113
40 455
41 496
42 122
43 270
44 113
45 254
46 257
47 223
48 361
49 172
50 88

<precedence relations>
1,6
1,9
2,5
2,6
2,7
2,8
2,9
3,5
3,6
3,7
3,8
3,9
4,6
4,10
6,11
7,10
8,10
8,11
9,10
9,11
10,12
10,13
10,14
10,15
11,12
11,13
12,18
12,19
12,22
13,16
13,17
14,40
15,33
16,23
16,24
16,25
16,30
17,22
17,27
19,20
19,21
19,26
20,34
20,39
21,39
22,29
22,31
23,33
23,40
24,37
25,28
26,30
27,31
28,33
29,32
29,33
31,33
31,34
32,36
32,38
32,42
33,37
33,39
33,41
34,35
34,36
34,40
34,44
35,43
36,43
36,49
37,44
37,48
38,47
40,46
41,43
41,44
41,45
42,43
42,46
42,49
43,47
43,48
43,50
44,47
44,49
45,46

<end>
